$https://teachinglondoncomputing.org/cut-hive-puzzles/

language ESSENCE' 1.0

letting height be 4
letting length be 3
letting numblocks be 4
letting blocks be 
[
    [1, 1, 1],
    [2, 1, 4],
    [2, 3, 3],
    [3, 0, 3]
]
letting fixed be
[
    [0, 0, 0],
    [0, 3, 0],
    [0, 0, 2],
    [0, 0, 0]
]